lp_solve/benchmarks/jfdctint.lp
Maximize

167 dSta_0 + 168 d0_18 + 34 d1_2.v0 + 34 d1_2.v1 + 55 d1_1.v0 + 55 d1_1.v1 + 31 d2_11 + 1259 d3_10.v0 + 1255 d3_10.v1 + 3 d4_5.v00 + 3 d4_5.v01 + 3 d4_5.v10 + 3 d4_5.v11 + 766 d4_4.v00 + 762 d4_4.v01 + 762 d4_4.v10 + 762 d4_4.v11 + 1289 d5_9.v0 + 1287 d5_9.v1 + 33 d6_7.v00 + 33 d6_7.v01 + 33 d6_7.v10 + 33 d6_7.v11 + 766 d6_6.v00 + 764 d6_6.v01 + 764 d6_6.v10 + 764 d6_6.v11 + 98 d7_8.v0 + 98 d7_8.v1 + 62 d7_3.v0 + 62 d7_3.v1 + 766 d9_6.v0 + 764 d9_6.v1 + 33 d9_7.v0 + 33 d9_7.v1 + 766 d10_4.v0 + 762 d10_4.v1 + 3 d10_5.v0 + 3 d10_5.v1 + 1259 d11_17 + 3 d12_13.v0 + 3 d12_13.v1 + 766 d12_12.v0 + 762 d12_12.v1 + 1289 d13_16 + 33 d14_15.v0 + 33 d14_15.v1 + 766 d14_14.v0 + 764 d14_14.v1 + 62 d15_3 + 98 d15_8 + 766 d16_14 + 33 d16_15 + 766 d17_12 + 3 d17_13 + 55 d18_1 + 34 d18_2


Subject to


\ === tcfg constraints ===
dSta_0 = 1
b0 - d0_18 = 0
b0 - dSta_0 = 0
b1 - d1_2 - d1_1 = 0
b1 - d1_1 - d18_1 = 0
b2 - d2_11 = 0
b2 - d1_2 - d18_2 = 0
b3 - d3_10 = 0
b3 - d7_3 - d15_3 = 0
b4 - d4_5 - d4_4 = 0
b4 - d4_4 - d10_4 = 0
b5 - d5_9 = 0
b5 - d4_5 - d10_5 = 0
b6 - d6_7 - d6_6 = 0
b6 - d6_6 - d9_6 = 0
b7 - d7_8 - d7_3 = 0
b7 - d6_7 - d9_7 = 0
b8 - d7_8 - d15_8 = 0
b9 - d9_6 - d9_7 = 0
b9 - d5_9 = 0
b10 - d10_4 - d10_5 = 0
b10 - d3_10 = 0
b11 - d11_17 = 0
b11 - d2_11 = 0
b12 - d12_13 - d12_12 = 0
b12 - d12_12 - d17_12 = 0
b13 - d13_16 = 0
b13 - d12_13 - d17_13 = 0
b14 - d14_15 - d14_14 = 0
b14 - d14_14 - d16_14 = 0
b15 - d15_3 - d15_8 = 0
b15 - d14_15 - d16_15 = 0
b16 - d16_14 - d16_15 = 0
b16 - d13_16 = 0
b17 - d17_12 - d17_13 = 0
b17 - d11_17 = 0
b18 - d18_1 - d18_2 = 0
b18 - d0_18 = 0


\ === context constraints ===

\(a)
d1_2 - d1_2.v0 - d1_2.v1 = 0
d1_1 - d1_1.v0 - d1_1.v1 = 0
d3_10 - d3_10.v0 - d3_10.v1 = 0
d4_5 - d4_5.v00 - d4_5.v01 - d4_5.v10 - d4_5.v11 = 0
d4_4 - d4_4.v00 - d4_4.v01 - d4_4.v10 - d4_4.v11 = 0
d5_9 - d5_9.v0 - d5_9.v1 = 0
d6_7 - d6_7.v00 - d6_7.v01 - d6_7.v10 - d6_7.v11 = 0
d6_6 - d6_6.v00 - d6_6.v01 - d6_6.v10 - d6_6.v11 = 0
d7_8 - d7_8.v0 - d7_8.v1 = 0
d7_3 - d7_3.v0 - d7_3.v1 = 0
d9_6 - d9_6.v0 - d9_6.v1 = 0
d9_7 - d9_7.v0 - d9_7.v1 = 0
d10_4 - d10_4.v0 - d10_4.v1 = 0
d10_5 - d10_5.v0 - d10_5.v1 = 0
d12_13 - d12_13.v0 - d12_13.v1 = 0
d12_12 - d12_12.v0 - d12_12.v1 = 0
d14_15 - d14_15.v0 - d14_15.v1 = 0
d14_14 - d14_14.v0 - d14_14.v1 = 0

\(b)
b1.v0 - d1_2.v0 - d1_1.v0 = 0
b1.v1 - d1_2.v1 - d1_1.v1 = 0
b3.v0 - d3_10.v0 = 0
b3.v1 - d3_10.v1 = 0
b4.v00 - d4_5.v00 - d4_4.v00 = 0
b4.v01 - d4_5.v01 - d4_4.v01 = 0
b4.v10 - d4_5.v10 - d4_4.v10 = 0
b4.v11 - d4_5.v11 - d4_4.v11 = 0
b5.v0 - d5_9.v0 = 0
b5.v1 - d5_9.v1 = 0
b6.v00 - d6_7.v00 - d6_6.v00 = 0
b6.v01 - d6_7.v01 - d6_6.v01 = 0
b6.v10 - d6_7.v10 - d6_6.v10 = 0
b6.v11 - d6_7.v11 - d6_6.v11 = 0
b7.v0 - d7_8.v0 - d7_3.v0 = 0
b7.v1 - d7_8.v1 - d7_3.v1 = 0
b9.v0 - d9_6.v0 - d9_7.v0 = 0
b9.v1 - d9_6.v1 - d9_7.v1 = 0
b10.v0 - d10_4.v0 - d10_5.v0 = 0
b10.v1 - d10_4.v1 - d10_5.v1 = 0
b12.v0 - d12_13.v0 - d12_12.v0 = 0
b12.v1 - d12_13.v1 - d12_12.v1 = 0
b14.v0 - d14_15.v0 - d14_14.v0 = 0
b14.v1 - d14_15.v1 - d14_14.v1 = 0

\(c)
b1 - b1.v0 - b1.v1 = 0
b3 - b3.v0 - b3.v1 = 0
b4 - b4.v00 - b4.v01 - b4.v10 - b4.v11 = 0
b5 - b5.v0 - b5.v1 = 0
b6 - b6.v00 - b6.v01 - b6.v10 - b6.v11 = 0
b7 - b7.v0 - b7.v1 = 0
b9 - b9.v0 - b9.v1 = 0
b10 - b10.v0 - b10.v1 = 0
b12 - b12.v0 - b12.v1 = 0
b14 - b14.v0 - b14.v1 = 0

\(d)
b1.v0 - d18_1 = 0
b4.v00 - d10_4.v0 = 0
b4.v10 - d10_4.v1 = 0
b6.v00 - d9_6.v0 = 0
b6.v10 - d9_6.v1 = 0
b3.v0 - d15_3 = 0
b12.v0 - d17_12 = 0
b14.v0 - d16_14 = 0

\(e)
b1.v1 - d1_1.v0 - d1_1.v1 = 0
b1.v1 - 16382 d1_1.v0 <= 0
b4.v01 - d4_4.v00 - d4_4.v01 = 0
b4.v01 - 6 d4_4.v00 <= 0
b4.v11 - d4_4.v10 - d4_4.v11 = 0
b4.v11 - 6 d4_4.v10 <= 0
b6.v01 - d6_6.v00 - d6_6.v01 = 0
b6.v01 - 6 d6_6.v00 <= 0
b6.v11 - d6_6.v10 - d6_6.v11 = 0
b6.v11 - 6 d6_6.v10 <= 0
b3.v1 - d7_3.v0 - d7_3.v1 = 0
b3.v1 - 254 d7_3.v0 <= 0
b12.v1 - d12_12.v0 - d12_12.v1 = 0
b12.v1 - 6 d12_12.v0 <= 0
b14.v1 - d14_14.v0 - d14_14.v1 = 0
b14.v1 - 6 d14_14.v0 <= 0

\(f)
d1_2 - d1_2.v0 - d1_2.v1 = 0
d4_5.v0 - d4_5.v00 - d4_5.v01 = 0
d4_5.v1 - d4_5.v10 - d4_5.v11 = 0
d6_7.v0 - d6_7.v00 - d6_7.v01 = 0
d6_7.v1 - d6_7.v10 - d6_7.v11 = 0
d7_8 - d7_8.v0 - d7_8.v1 = 0
d12_13 - d12_13.v0 - d12_13.v1 = 0
d14_15 - d14_15.v0 - d14_15.v1 = 0

\(g)
b5.v0 - d4_5.v0 - d10_5.v0 = 0
b5.v1 - d4_5.v1 - d10_5.v1 = 0
b7.v0 - d6_7.v0 - d9_7.v0 = 0
b7.v1 - d6_7.v1 - d9_7.v1 = 0
b9.v0 - d5_9.v0 = 0
b9.v1 - d5_9.v1 = 0
b10.v0 - d3_10.v0 = 0
b10.v1 - d3_10.v1 = 0

\ === header constraints ===
b0 <= 1
b1 - 16383 b0 <= 0
b1 - 16383 d18_1 <= 0
b4 - 7 b3 <= 0
b4 - 7 d10_4 <= 0
b6 - 7 b3 <= 0
b6 - 7 d9_6 <= 0
b3 - 255 b0 <= 0
b3 - 255 d15_3 <= 0
b12 - 7 b0 <= 0
b12 - 7 d17_12 <= 0
b14 - 7 b0 <= 0
b14 - 7 d16_14 <= 0

Generals

Sta
b0
d0_18
b1
d1_2
d1_1
b2
d2_11
b3
d3_10
b4
d4_5
d4_4
b5
d5_9
b6
d6_7
d6_6
b7
d7_8
d7_3
b8
b9
d9_6
d9_7
b10
d10_4
d10_5
b11
d11_17
b12
d12_13
d12_12
b13
d13_16
b14
d14_15
d14_14
b15
d15_3
d15_8
b16
d16_14
d16_15
b17
d17_12
d17_13
b18
d18_1
d18_2
b0.d0
b0.d1
b0.d2
b0.d3
b0.d4
b0.d5
b1.d0
b4.d0
b4.d1
b4.d2
b4.d3
b4.d4
b4.d5
b4.d6
b4.d7
b4.d8
b4.d9
b4.d10
b4.d11
b4.d12
b4.d13
b4.d14
b4.d15
b6.d0
b6.d1
b6.d2
b6.d3
b6.d4
b6.d5
b6.d6
b6.d7
b6.d8
b6.d9
b6.d10
b6.d11
b6.d12
b6.d13
b6.d14
b6.d15
b8.d0
b8.d1
b8.d2
b8.d3
b8.d4
b8.d5
b9.d0
b9.d1
b9.d2
b9.d3
b9.d4
b9.d5
b9.d6
b9.d7
b9.d8
b9.d9
b9.d10
b9.d11
b9.d12
b9.d13
b9.d14
b9.d15
b10.d0
b10.d1
b10.d2
b10.d3
b10.d4
b10.d5
b10.d6
b10.d7
b10.d8
b10.d9
b10.d10
b10.d11
b10.d12
b10.d13
b10.d14
b10.d15
b12.d0
b12.d1
b12.d2
b12.d3
b12.d4
b12.d5
b12.d6
b12.d7
b12.d8
b12.d9
b12.d10
b12.d11
b12.d12
b12.d13
b12.d14
b12.d15
b14.d0
b14.d1
b14.d2
b14.d3
b14.d4
b14.d5
b14.d6
b14.d7
b14.d8
b14.d9
b14.d10
b14.d11
b14.d12
b14.d13
b14.d14
b14.d15
b16.d0
b16.d1
b16.d2
b16.d3
b16.d4
b16.d5
b16.d6
b16.d7
b16.d8
b16.d9
b16.d10
b16.d11
b16.d12
b16.d13
b16.d14
b16.d15
b17.d0
b17.d1
b17.d2
b17.d3
b17.d4
b17.d5
b17.d6
b17.d7
b17.d8
b17.d9
b17.d10
b17.d11
b17.d12
b17.d13
b17.d14
b17.d15
b18.d0
d0_18
d1_2.v0
d1_2.v1
d1_1.v0
d1_1.v1
d2_11
d3_10.v0
d3_10.v1
d4_5.v00
d4_5.v01
d4_5.v10
d4_5.v11
d4_4.v00
d4_4.v01
d4_4.v10
d4_4.v11
d5_9.v0
d5_9.v1
d6_7.v00
d6_7.v01
d6_7.v10
d6_7.v11
d6_6.v00
d6_6.v01
d6_6.v10
d6_6.v11
d7_8.v0
d7_8.v1
d7_3.v0
d7_3.v1
d9_6.v0
d9_6.v1
d9_7.v0
d9_7.v1
d10_4.v0
d10_4.v1
d10_5.v0
d10_5.v1
d11_17
d12_13.v0
d12_13.v1
d12_12.v0
d12_12.v1
d13_16
d14_15.v0
d14_15.v1
d14_14.v0
d14_14.v1
d15_3
d15_8
d16_14
d16_15
d17_12
d17_13
d18_1
d18_2

End
\ total_cons: 142 	total_vars: 192
