lp_solve/compute_ilp/result/jfdctint.res
set_XLI: Successfully loaded './xli_CPLEX'

Value of objective function: 4.31197e+06

Actual values of the variables:
dSta_0                          1
d0_18                           1
d1_2.v0                         0
d1_2.v1                         1
d1_1.v0                         1
d1_1.v1                     16381
d2_11                           1
d3_10.v0                        1
d3_10.v1                      254
d4_5.v00                        0
d4_5.v01                        1
d4_5.v10                        0
d4_5.v11                      254
d4_4.v00                        1
d4_4.v01                        5
d4_4.v10                      254
d4_4.v11                     1270
d5_9.v0                         1
d5_9.v1                       254
d6_7.v00                        0
d6_7.v01                        1
d6_7.v10                        0
d6_7.v11                      254
d6_6.v00                        1
d6_6.v01                        5
d6_6.v10                      254
d6_6.v11                     1270
d7_8.v0                         0
d7_8.v1                         1
d7_3.v0                         1
d7_3.v1                       253
d9_6.v0                         1
d9_6.v1                       254
d9_7.v0                         0
d9_7.v1                         0
d10_4.v0                        1
d10_4.v1                      254
d10_5.v0                        0
d10_5.v1                        0
d11_17                          1
d12_13.v0                       0
d12_13.v1                       1
d12_12.v0                       1
d12_12.v1                       5
d13_16                          1
d14_15.v0                       0
d14_15.v1                       1
d14_14.v0                       1
d14_14.v1                       5
d15_3                           1
d15_8                           0
d16_14                          1
d16_15                          0
d17_12                          1
d17_13                          0
d18_1                           1
d18_2                           0
b0                              1
b1                          16383
d1_2                            1
d1_1                        16382
b2                              1
b3                            255
d3_10                         255
d7_3                          254
b4                           1785
d4_5                          255
d4_4                         1530
d10_4                         255
b5                            255
d5_9                          255
d10_5                           0
b6                           1785
d6_7                          255
d6_6                         1530
d9_6                          255
b7                            255
d7_8                            1
d9_7                            0
b8                              1
b9                            255
b10                           255
b11                             1
b12                             7
d12_13                          1
d12_12                          6
b13                             1
b14                             7
d14_15                          1
d14_14                          6
b15                             1
b16                             1
b17                             1
b18                             1
b1.v0                           1
b1.v1                       16382
b3.v0                           1
b3.v1                         254
b4.v00                          1
b4.v01                          6
b4.v10                        254
b4.v11                       1524
b5.v0                           1
b5.v1                         254
b6.v00                          1
b6.v01                          6
b6.v10                        254
b6.v11                       1524
b7.v0                           1
b7.v1                         254
b9.v0                           1
b9.v1                         254
b10.v0                          1
b10.v1                        254
b12.v0                          1
b12.v1                          6
b14.v0                          1
b14.v1                          6
d4_5.v0                         1
d4_5.v1                       254
d6_7.v0                         1
d6_7.v1                       254
